Maximize
  9 x0_0_ + 9 x0_1_ + 9 x0_2_ + 9 x0_3_ + 9 x0_4_ + 9 x0_5_ + 7 x0_6_
   + 2 x0_7_ + 2 x0_8_ + 2 x0_9_ + 216 x1_7_ + 216 x1_8_ + 216 x1_9_
   + 51 x2_7_ + 51 x2_8_ + 51 x2_9_ + 45 x3_0_ + 45 x3_1_ + 45 x3_2_
   + 45 x3_3_ + 45 x3_4_ + 45 x3_5_ + 35 x3_6_ + 10 x3_7_ + 10 x3_8_
   + 10 x3_9_ + 27 x4_0_ + 27 x4_1_ + 27 x4_2_ + 27 x4_3_ + 27 x4_4_
   + 27 x4_5_ + 21 x4_6_ + 6 x4_7_ + 6 x4_8_ + 6 x4_9_ + 45 x5_0_
   + 45 x5_1_ + 45 x5_2_ + 45 x5_3_ + 45 x5_4_ + 45 x5_5_ + 35 x5_6_
   + 10 x5_7_ + 10 x5_8_ + 10 x5_9_ + 27 x6_0_ + 27 x6_1_ + 27 x6_2_
   + 27 x6_3_ + 27 x6_4_ + 27 x6_5_ + 21 x6_6_ + 6 x6_7_ + 6 x6_8_
   + 6 x6_9_ + 9 x7_0_ + 9 x7_1_ + 9 x7_2_ + 9 x7_3_ + 9 x7_4_ + 9 x7_5_
   + 7 x7_6_ + 2 x7_7_ + 2 x7_8_ + 2 x7_9_ + 36 x8_0_ + 36 x8_1_ + 36 x8_2_
   + 36 x8_3_ + 36 x8_4_ + 36 x8_5_ + 28 x8_6_ + 8 x8_7_ + 8 x8_8_
   + 8 x8_9_ + 45 x9_0_ + 45 x9_1_ + 45 x9_2_ + 45 x9_3_ + 45 x9_4_
   + 45 x9_5_ + 35 x9_6_ + 10 x9_7_ + 10 x9_8_ + 10 x9_9_ + 18 x10_0_
   + 18 x10_1_ + 18 x10_2_ + 18 x10_3_ + 18 x10_4_ + 18 x10_5_ + 14 x10_6_
   + 4 x10_7_ + 4 x10_8_ + 4 x10_9_ + 288 x11_7_ + 288 x11_8_ + 288 x11_9_
   + 18 x12_0_ + 18 x12_1_ + 18 x12_2_ + 18 x12_3_ + 18 x12_4_ + 18 x12_5_
   + 14 x12_6_ + 4 x12_7_ + 4 x12_8_ + 4 x12_9_ + 144 x13_7_ + 144 x13_8_
   + 144 x13_9_ + 9 x14_0_ + 9 x14_1_ + 9 x14_2_ + 9 x14_3_ + 9 x14_4_
   + 9 x14_5_ + 7 x14_6_ + 2 x14_7_ + 2 x14_8_ + 2 x14_9_ + 9 x15_0_
   + 9 x15_1_ + 9 x15_2_ + 9 x15_3_ + 9 x15_4_ + 9 x15_5_ + 7 x15_6_
   + 2 x15_7_ + 2 x15_8_ + 2 x15_9_ + 27 x16_0_ + 27 x16_1_ + 27 x16_2_
   + 27 x16_3_ + 27 x16_4_ + 27 x16_5_ + 21 x16_6_ + 6 x16_7_ + 6 x16_8_
   + 6 x16_9_ + 27 x17_0_ + 27 x17_1_ + 27 x17_2_ + 27 x17_3_ + 27 x17_4_
   + 27 x17_5_ + 21 x17_6_ + 6 x17_7_ + 6 x17_8_ + 6 x17_9_ + 288 x18_7_
   + 288 x18_8_ + 288 x18_9_ + 18 x19_0_ + 18 x19_1_ + 18 x19_2_
   + 18 x19_3_ + 18 x19_4_ + 18 x19_5_ + 14 x19_6_ + 4 x19_7_ + 4 x19_8_
   + 4 x19_9_
Subject To
 R0: x0_0_ + x0_1_ + x0_2_ + x0_3_ + x0_4_ + x0_5_ + x0_6_ + x0_7_ + x0_8_
   + x0_9_ + x0_n_ = 1
 R1: x1_6_ + x1_7_ + x1_8_ + x1_9_ + x1_n_ = 1
 R2: x2_7_ + x2_8_ + x2_9_ + x2_n_ = 1
 R3: x3_0_ + x3_1_ + x3_2_ + x3_3_ + x3_4_ + x3_5_ + x3_6_ + x3_7_ + x3_8_
   + x3_9_ + x3_n_ = 1
 R4: x4_0_ + x4_1_ + x4_2_ + x4_3_ + x4_4_ + x4_5_ + x4_6_ + x4_7_ + x4_8_
   + x4_9_ + x4_n_ = 1
 R5: x5_0_ + x5_1_ + x5_2_ + x5_3_ + x5_4_ + x5_5_ + x5_6_ + x5_7_ + x5_8_
   + x5_9_ + x5_n_ = 1
 R6: x6_0_ + x6_1_ + x6_2_ + x6_3_ + x6_4_ + x6_5_ + x6_6_ + x6_7_ + x6_8_
   + x6_9_ + x6_n_ = 1
 R7: x7_0_ + x7_1_ + x7_2_ + x7_3_ + x7_4_ + x7_5_ + x7_6_ + x7_7_ + x7_8_
   + x7_9_ + x7_n_ = 1
 R8: x8_0_ + x8_1_ + x8_2_ + x8_3_ + x8_4_ + x8_5_ + x8_6_ + x8_7_ + x8_8_
   + x8_9_ + x8_n_ = 1
 R9: x9_0_ + x9_1_ + x9_2_ + x9_3_ + x9_4_ + x9_5_ + x9_6_ + x9_7_ + x9_8_
   + x9_9_ + x9_n_ = 1
 R10: x10_0_ + x10_1_ + x10_2_ + x10_3_ + x10_4_ + x10_5_ + x10_6_ + x10_7_
   + x10_8_ + x10_9_ + x10_n_ = 1
 R11: x11_6_ + x11_7_ + x11_8_ + x11_9_ + x11_n_ = 1
 R12: x12_0_ + x12_1_ + x12_2_ + x12_3_ + x12_4_ + x12_5_ + x12_6_ + x12_7_
   + x12_8_ + x12_9_ + x12_n_ = 1
 R13: x13_6_ + x13_7_ + x13_8_ + x13_9_ + x13_n_ = 1
 R14: x14_0_ + x14_1_ + x14_2_ + x14_3_ + x14_4_ + x14_5_ + x14_6_ + x14_7_
   + x14_8_ + x14_9_ + x14_n_ = 1
 R15: x15_0_ + x15_1_ + x15_2_ + x15_3_ + x15_4_ + x15_5_ + x15_6_ + x15_7_
   + x15_8_ + x15_9_ + x15_n_ = 1
 R16: x16_0_ + x16_1_ + x16_2_ + x16_3_ + x16_4_ + x16_5_ + x16_6_ + x16_7_
   + x16_8_ + x16_9_ + x16_n_ = 1
 R17: x17_0_ + x17_1_ + x17_2_ + x17_3_ + x17_4_ + x17_5_ + x17_6_ + x17_7_
   + x17_8_ + x17_9_ + x17_n_ = 1
 R18: x18_6_ + x18_7_ + x18_8_ + x18_9_ + x18_n_ = 1
 R19: x19_0_ + x19_1_ + x19_2_ + x19_3_ + x19_4_ + x19_5_ + x19_6_ + x19_7_
   + x19_8_ + x19_9_ + x19_n_ = 1
 R20: x0_0_ + x14_0_ <= 1
 R21: x0_1_ + x14_1_ <= 1
 R22: x0_2_ + x14_2_ <= 1
 R23: x0_3_ + x14_3_ <= 1
 R24: x0_4_ + x14_4_ <= 1
 R25: x0_5_ + x14_5_ <= 1
 R26: x0_6_ + x14_6_ <= 1
 R27: x0_7_ + x14_7_ <= 1
 R28: x0_8_ + x14_8_ <= 1
 R29: x0_9_ + x14_9_ <= 1
 R30: x1_6_ + x3_6_ <= 1
 R31: x1_7_ + x3_7_ <= 1
 R32: x1_8_ + x3_8_ <= 1
 R33: x1_9_ + x3_9_ <= 1
 R34: x1_6_ + x6_6_ <= 1
 R35: x1_7_ + x6_7_ <= 1
 R36: x1_8_ + x6_8_ <= 1
 R37: x1_9_ + x6_9_ <= 1
 R38: x1_6_ + x9_6_ <= 1
 R39: x1_7_ + x9_7_ <= 1
 R40: x1_8_ + x9_8_ <= 1
 R41: x1_9_ + x9_9_ <= 1
 R42: x1_6_ + x16_6_ <= 1
 R43: x1_7_ + x16_7_ <= 1
 R44: x1_8_ + x16_8_ <= 1
 R45: x1_9_ + x16_9_ <= 1
 R46: x1_6_ + x18_6_ <= 1
 R47: x1_7_ + x18_7_ <= 1
 R48: x1_8_ + x18_8_ <= 1
 R49: x1_9_ + x18_9_ <= 1
 R50: x1_6_ + x19_6_ <= 1
 R51: x1_7_ + x19_7_ <= 1
 R52: x1_8_ + x19_8_ <= 1
 R53: x1_9_ + x19_9_ <= 1
 R54: x2_7_ + x3_7_ <= 1
 R55: x2_8_ + x3_8_ <= 1
 R56: x2_9_ + x3_9_ <= 1
 R57: x2_7_ + x4_7_ <= 1
 R58: x2_8_ + x4_8_ <= 1
 R59: x2_9_ + x4_9_ <= 1
 R60: x2_7_ + x6_7_ <= 1
 R61: x2_8_ + x6_8_ <= 1
 R62: x2_9_ + x6_9_ <= 1
 R63: x2_7_ + x7_7_ <= 1
 R64: x2_8_ + x7_8_ <= 1
 R65: x2_9_ + x7_9_ <= 1
 R66: x2_7_ + x9_7_ <= 1
 R67: x2_8_ + x9_8_ <= 1
 R68: x2_9_ + x9_9_ <= 1
 R69: x2_7_ + x10_7_ <= 1
 R70: x2_8_ + x10_8_ <= 1
 R71: x2_9_ + x10_9_ <= 1
 R72: x2_7_ + x13_7_ <= 1
 R73: x2_8_ + x13_8_ <= 1
 R74: x2_9_ + x13_9_ <= 1
 R75: x2_7_ + x16_7_ <= 1
 R76: x2_8_ + x16_8_ <= 1
 R77: x2_9_ + x16_9_ <= 1
 R78: x2_7_ + x18_7_ <= 1
 R79: x2_8_ + x18_8_ <= 1
 R80: x2_9_ + x18_9_ <= 1
 R81: x3_0_ + x4_0_ <= 1
 R82: x3_1_ + x4_1_ <= 1
 R83: x3_2_ + x4_2_ <= 1
 R84: x3_3_ + x4_3_ <= 1
 R85: x3_4_ + x4_4_ <= 1
 R86: x3_5_ + x4_5_ <= 1
 R87: x3_6_ + x4_6_ <= 1
 R88: x3_7_ + x4_7_ <= 1
 R89: x3_8_ + x4_8_ <= 1
 R90: x3_9_ + x4_9_ <= 1
 R91: x3_0_ + x6_0_ <= 1
 R92: x3_1_ + x6_1_ <= 1
 R93: x3_2_ + x6_2_ <= 1
 R94: x3_3_ + x6_3_ <= 1
 R95: x3_4_ + x6_4_ <= 1
 R96: x3_5_ + x6_5_ <= 1
 R97: x3_6_ + x6_6_ <= 1
 R98: x3_7_ + x6_7_ <= 1
 R99: x3_8_ + x6_8_ <= 1
 R100: x3_9_ + x6_9_ <= 1
 R101: x3_0_ + x7_0_ <= 1
 R102: x3_1_ + x7_1_ <= 1
 R103: x3_2_ + x7_2_ <= 1
 R104: x3_3_ + x7_3_ <= 1
 R105: x3_4_ + x7_4_ <= 1
 R106: x3_5_ + x7_5_ <= 1
 R107: x3_6_ + x7_6_ <= 1
 R108: x3_7_ + x7_7_ <= 1
 R109: x3_8_ + x7_8_ <= 1
 R110: x3_9_ + x7_9_ <= 1
 R111: x3_0_ + x9_0_ <= 1
 R112: x3_1_ + x9_1_ <= 1
 R113: x3_2_ + x9_2_ <= 1
 R114: x3_3_ + x9_3_ <= 1
 R115: x3_4_ + x9_4_ <= 1
 R116: x3_5_ + x9_5_ <= 1
 R117: x3_6_ + x9_6_ <= 1
 R118: x3_7_ + x9_7_ <= 1
 R119: x3_8_ + x9_8_ <= 1
 R120: x3_9_ + x9_9_ <= 1
 R121: x3_0_ + x10_0_ <= 1
 R122: x3_1_ + x10_1_ <= 1
 R123: x3_2_ + x10_2_ <= 1
 R124: x3_3_ + x10_3_ <= 1
 R125: x3_4_ + x10_4_ <= 1
 R126: x3_5_ + x10_5_ <= 1
 R127: x3_6_ + x10_6_ <= 1
 R128: x3_7_ + x10_7_ <= 1
 R129: x3_8_ + x10_8_ <= 1
 R130: x3_9_ + x10_9_ <= 1
 R131: x3_0_ + x16_0_ <= 1
 R132: x3_1_ + x16_1_ <= 1
 R133: x3_2_ + x16_2_ <= 1
 R134: x3_3_ + x16_3_ <= 1
 R135: x3_4_ + x16_4_ <= 1
 R136: x3_5_ + x16_5_ <= 1
 R137: x3_6_ + x16_6_ <= 1
 R138: x3_7_ + x16_7_ <= 1
 R139: x3_8_ + x16_8_ <= 1
 R140: x3_9_ + x16_9_ <= 1
 R141: x3_0_ + x19_0_ <= 1
 R142: x3_1_ + x19_1_ <= 1
 R143: x3_2_ + x19_2_ <= 1
 R144: x3_3_ + x19_3_ <= 1
 R145: x3_4_ + x19_4_ <= 1
 R146: x3_5_ + x19_5_ <= 1
 R147: x3_6_ + x19_6_ <= 1
 R148: x3_7_ + x19_7_ <= 1
 R149: x3_8_ + x19_8_ <= 1
 R150: x3_9_ + x19_9_ <= 1
 R151: x3_0_ + x4_0_ <= 1
 R152: x3_1_ + x4_1_ <= 1
 R153: x3_2_ + x4_2_ <= 1
 R154: x3_3_ + x4_3_ <= 1
 R155: x3_4_ + x4_4_ <= 1
 R156: x3_5_ + x4_5_ <= 1
 R157: x3_6_ + x4_6_ <= 1
 R158: x3_7_ + x4_7_ <= 1
 R159: x3_8_ + x4_8_ <= 1
 R160: x3_9_ + x4_9_ <= 1
 R161: x4_0_ + x7_0_ <= 1
 R162: x4_1_ + x7_1_ <= 1
 R163: x4_2_ + x7_2_ <= 1
 R164: x4_3_ + x7_3_ <= 1
 R165: x4_4_ + x7_4_ <= 1
 R166: x4_5_ + x7_5_ <= 1
 R167: x4_6_ + x7_6_ <= 1
 R168: x4_7_ + x7_7_ <= 1
 R169: x4_8_ + x7_8_ <= 1
 R170: x4_9_ + x7_9_ <= 1
 R171: x4_0_ + x9_0_ <= 1
 R172: x4_1_ + x9_1_ <= 1
 R173: x4_2_ + x9_2_ <= 1
 R174: x4_3_ + x9_3_ <= 1
 R175: x4_4_ + x9_4_ <= 1
 R176: x4_5_ + x9_5_ <= 1
 R177: x4_6_ + x9_6_ <= 1
 R178: x4_7_ + x9_7_ <= 1
 R179: x4_8_ + x9_8_ <= 1
 R180: x4_9_ + x9_9_ <= 1
 R181: x4_0_ + x10_0_ <= 1
 R182: x4_1_ + x10_1_ <= 1
 R183: x4_2_ + x10_2_ <= 1
 R184: x4_3_ + x10_3_ <= 1
 R185: x4_4_ + x10_4_ <= 1
 R186: x4_5_ + x10_5_ <= 1
 R187: x4_6_ + x10_6_ <= 1
 R188: x4_7_ + x10_7_ <= 1
 R189: x4_8_ + x10_8_ <= 1
 R190: x4_9_ + x10_9_ <= 1
 R191: x5_0_ + x8_0_ <= 1
 R192: x5_1_ + x8_1_ <= 1
 R193: x5_2_ + x8_2_ <= 1
 R194: x5_3_ + x8_3_ <= 1
 R195: x5_4_ + x8_4_ <= 1
 R196: x5_5_ + x8_5_ <= 1
 R197: x5_6_ + x8_6_ <= 1
 R198: x5_7_ + x8_7_ <= 1
 R199: x5_8_ + x8_8_ <= 1
 R200: x5_9_ + x8_9_ <= 1
 R201: x5_0_ + x12_0_ <= 1
 R202: x5_1_ + x12_1_ <= 1
 R203: x5_2_ + x12_2_ <= 1
 R204: x5_3_ + x12_3_ <= 1
 R205: x5_4_ + x12_4_ <= 1
 R206: x5_5_ + x12_5_ <= 1
 R207: x5_6_ + x12_6_ <= 1
 R208: x5_7_ + x12_7_ <= 1
 R209: x5_8_ + x12_8_ <= 1
 R210: x5_9_ + x12_9_ <= 1
 R211: x5_0_ + x15_0_ <= 1
 R212: x5_1_ + x15_1_ <= 1
 R213: x5_2_ + x15_2_ <= 1
 R214: x5_3_ + x15_3_ <= 1
 R215: x5_4_ + x15_4_ <= 1
 R216: x5_5_ + x15_5_ <= 1
 R217: x5_6_ + x15_6_ <= 1
 R218: x5_7_ + x15_7_ <= 1
 R219: x5_8_ + x15_8_ <= 1
 R220: x5_9_ + x15_9_ <= 1
 R221: x5_0_ + x17_0_ <= 1
 R222: x5_1_ + x17_1_ <= 1
 R223: x5_2_ + x17_2_ <= 1
 R224: x5_3_ + x17_3_ <= 1
 R225: x5_4_ + x17_4_ <= 1
 R226: x5_5_ + x17_5_ <= 1
 R227: x5_6_ + x17_6_ <= 1
 R228: x5_7_ + x17_7_ <= 1
 R229: x5_8_ + x17_8_ <= 1
 R230: x5_9_ + x17_9_ <= 1
 R231: x3_0_ + x6_0_ <= 1
 R232: x3_1_ + x6_1_ <= 1
 R233: x3_2_ + x6_2_ <= 1
 R234: x3_3_ + x6_3_ <= 1
 R235: x3_4_ + x6_4_ <= 1
 R236: x3_5_ + x6_5_ <= 1
 R237: x3_6_ + x6_6_ <= 1
 R238: x3_7_ + x6_7_ <= 1
 R239: x3_8_ + x6_8_ <= 1
 R240: x3_9_ + x6_9_ <= 1
 R241: x6_0_ + x9_0_ <= 1
 R242: x6_1_ + x9_1_ <= 1
 R243: x6_2_ + x9_2_ <= 1
 R244: x6_3_ + x9_3_ <= 1
 R245: x6_4_ + x9_4_ <= 1
 R246: x6_5_ + x9_5_ <= 1
 R247: x6_6_ + x9_6_ <= 1
 R248: x6_7_ + x9_7_ <= 1
 R249: x6_8_ + x9_8_ <= 1
 R250: x6_9_ + x9_9_ <= 1
 R251: x6_0_ + x16_0_ <= 1
 R252: x6_1_ + x16_1_ <= 1
 R253: x6_2_ + x16_2_ <= 1
 R254: x6_3_ + x16_3_ <= 1
 R255: x6_4_ + x16_4_ <= 1
 R256: x6_5_ + x16_5_ <= 1
 R257: x6_6_ + x16_6_ <= 1
 R258: x6_7_ + x16_7_ <= 1
 R259: x6_8_ + x16_8_ <= 1
 R260: x6_9_ + x16_9_ <= 1
 R261: x6_0_ + x19_0_ <= 1
 R262: x6_1_ + x19_1_ <= 1
 R263: x6_2_ + x19_2_ <= 1
 R264: x6_3_ + x19_3_ <= 1
 R265: x6_4_ + x19_4_ <= 1
 R266: x6_5_ + x19_5_ <= 1
 R267: x6_6_ + x19_6_ <= 1
 R268: x6_7_ + x19_7_ <= 1
 R269: x6_8_ + x19_8_ <= 1
 R270: x6_9_ + x19_9_ <= 1
 R271: x3_0_ + x7_0_ <= 1
 R272: x3_1_ + x7_1_ <= 1
 R273: x3_2_ + x7_2_ <= 1
 R274: x3_3_ + x7_3_ <= 1
 R275: x3_4_ + x7_4_ <= 1
 R276: x3_5_ + x7_5_ <= 1
 R277: x3_6_ + x7_6_ <= 1
 R278: x3_7_ + x7_7_ <= 1
 R279: x3_8_ + x7_8_ <= 1
 R280: x3_9_ + x7_9_ <= 1
 R281: x4_0_ + x7_0_ <= 1
 R282: x4_1_ + x7_1_ <= 1
 R283: x4_2_ + x7_2_ <= 1
 R284: x4_3_ + x7_3_ <= 1
 R285: x4_4_ + x7_4_ <= 1
 R286: x4_5_ + x7_5_ <= 1
 R287: x4_6_ + x7_6_ <= 1
 R288: x4_7_ + x7_7_ <= 1
 R289: x4_8_ + x7_8_ <= 1
 R290: x4_9_ + x7_9_ <= 1
 R291: x7_0_ + x9_0_ <= 1
 R292: x7_1_ + x9_1_ <= 1
 R293: x7_2_ + x9_2_ <= 1
 R294: x7_3_ + x9_3_ <= 1
 R295: x7_4_ + x9_4_ <= 1
 R296: x7_5_ + x9_5_ <= 1
 R297: x7_6_ + x9_6_ <= 1
 R298: x7_7_ + x9_7_ <= 1
 R299: x7_8_ + x9_8_ <= 1
 R300: x7_9_ + x9_9_ <= 1
 R301: x7_0_ + x10_0_ <= 1
 R302: x7_1_ + x10_1_ <= 1
 R303: x7_2_ + x10_2_ <= 1
 R304: x7_3_ + x10_3_ <= 1
 R305: x7_4_ + x10_4_ <= 1
 R306: x7_5_ + x10_5_ <= 1
 R307: x7_6_ + x10_6_ <= 1
 R308: x7_7_ + x10_7_ <= 1
 R309: x7_8_ + x10_8_ <= 1
 R310: x7_9_ + x10_9_ <= 1
 R311: x5_0_ + x8_0_ <= 1
 R312: x5_1_ + x8_1_ <= 1
 R313: x5_2_ + x8_2_ <= 1
 R314: x5_3_ + x8_3_ <= 1
 R315: x5_4_ + x8_4_ <= 1
 R316: x5_5_ + x8_5_ <= 1
 R317: x5_6_ + x8_6_ <= 1
 R318: x5_7_ + x8_7_ <= 1
 R319: x5_8_ + x8_8_ <= 1
 R320: x5_9_ + x8_9_ <= 1
 R321: x8_0_ + x12_0_ <= 1
 R322: x8_1_ + x12_1_ <= 1
 R323: x8_2_ + x12_2_ <= 1
 R324: x8_3_ + x12_3_ <= 1
 R325: x8_4_ + x12_4_ <= 1
 R326: x8_5_ + x12_5_ <= 1
 R327: x8_6_ + x12_6_ <= 1
 R328: x8_7_ + x12_7_ <= 1
 R329: x8_8_ + x12_8_ <= 1
 R330: x8_9_ + x12_9_ <= 1
 R331: x8_0_ + x15_0_ <= 1
 R332: x8_1_ + x15_1_ <= 1
 R333: x8_2_ + x15_2_ <= 1
 R334: x8_3_ + x15_3_ <= 1
 R335: x8_4_ + x15_4_ <= 1
 R336: x8_5_ + x15_5_ <= 1
 R337: x8_6_ + x15_6_ <= 1
 R338: x8_7_ + x15_7_ <= 1
 R339: x8_8_ + x15_8_ <= 1
 R340: x8_9_ + x15_9_ <= 1
 R341: x8_0_ + x17_0_ <= 1
 R342: x8_1_ + x17_1_ <= 1
 R343: x8_2_ + x17_2_ <= 1
 R344: x8_3_ + x17_3_ <= 1
 R345: x8_4_ + x17_4_ <= 1
 R346: x8_5_ + x17_5_ <= 1
 R347: x8_6_ + x17_6_ <= 1
 R348: x8_7_ + x17_7_ <= 1
 R349: x8_8_ + x17_8_ <= 1
 R350: x8_9_ + x17_9_ <= 1
 R351: x3_0_ + x9_0_ <= 1
 R352: x3_1_ + x9_1_ <= 1
 R353: x3_2_ + x9_2_ <= 1
 R354: x3_3_ + x9_3_ <= 1
 R355: x3_4_ + x9_4_ <= 1
 R356: x3_5_ + x9_5_ <= 1
 R357: x3_6_ + x9_6_ <= 1
 R358: x3_7_ + x9_7_ <= 1
 R359: x3_8_ + x9_8_ <= 1
 R360: x3_9_ + x9_9_ <= 1
 R361: x4_0_ + x9_0_ <= 1
 R362: x4_1_ + x9_1_ <= 1
 R363: x4_2_ + x9_2_ <= 1
 R364: x4_3_ + x9_3_ <= 1
 R365: x4_4_ + x9_4_ <= 1
 R366: x4_5_ + x9_5_ <= 1
 R367: x4_6_ + x9_6_ <= 1
 R368: x4_7_ + x9_7_ <= 1
 R369: x4_8_ + x9_8_ <= 1
 R370: x4_9_ + x9_9_ <= 1
 R371: x6_0_ + x9_0_ <= 1
 R372: x6_1_ + x9_1_ <= 1
 R373: x6_2_ + x9_2_ <= 1
 R374: x6_3_ + x9_3_ <= 1
 R375: x6_4_ + x9_4_ <= 1
 R376: x6_5_ + x9_5_ <= 1
 R377: x6_6_ + x9_6_ <= 1
 R378: x6_7_ + x9_7_ <= 1
 R379: x6_8_ + x9_8_ <= 1
 R380: x6_9_ + x9_9_ <= 1
 R381: x7_0_ + x9_0_ <= 1
 R382: x7_1_ + x9_1_ <= 1
 R383: x7_2_ + x9_2_ <= 1
 R384: x7_3_ + x9_3_ <= 1
 R385: x7_4_ + x9_4_ <= 1
 R386: x7_5_ + x9_5_ <= 1
 R387: x7_6_ + x9_6_ <= 1
 R388: x7_7_ + x9_7_ <= 1
 R389: x7_8_ + x9_8_ <= 1
 R390: x7_9_ + x9_9_ <= 1
 R391: x9_0_ + x10_0_ <= 1
 R392: x9_1_ + x10_1_ <= 1
 R393: x9_2_ + x10_2_ <= 1
 R394: x9_3_ + x10_3_ <= 1
 R395: x9_4_ + x10_4_ <= 1
 R396: x9_5_ + x10_5_ <= 1
 R397: x9_6_ + x10_6_ <= 1
 R398: x9_7_ + x10_7_ <= 1
 R399: x9_8_ + x10_8_ <= 1
 R400: x9_9_ + x10_9_ <= 1
 R401: x9_0_ + x16_0_ <= 1
 R402: x9_1_ + x16_1_ <= 1
 R403: x9_2_ + x16_2_ <= 1
 R404: x9_3_ + x16_3_ <= 1
 R405: x9_4_ + x16_4_ <= 1
 R406: x9_5_ + x16_5_ <= 1
 R407: x9_6_ + x16_6_ <= 1
 R408: x9_7_ + x16_7_ <= 1
 R409: x9_8_ + x16_8_ <= 1
 R410: x9_9_ + x16_9_ <= 1
 R411: x9_0_ + x19_0_ <= 1
 R412: x9_1_ + x19_1_ <= 1
 R413: x9_2_ + x19_2_ <= 1
 R414: x9_3_ + x19_3_ <= 1
 R415: x9_4_ + x19_4_ <= 1
 R416: x9_5_ + x19_5_ <= 1
 R417: x9_6_ + x19_6_ <= 1
 R418: x9_7_ + x19_7_ <= 1
 R419: x9_8_ + x19_8_ <= 1
 R420: x9_9_ + x19_9_ <= 1
 R421: x3_0_ + x10_0_ <= 1
 R422: x3_1_ + x10_1_ <= 1
 R423: x3_2_ + x10_2_ <= 1
 R424: x3_3_ + x10_3_ <= 1
 R425: x3_4_ + x10_4_ <= 1
 R426: x3_5_ + x10_5_ <= 1
 R427: x3_6_ + x10_6_ <= 1
 R428: x3_7_ + x10_7_ <= 1
 R429: x3_8_ + x10_8_ <= 1
 R430: x3_9_ + x10_9_ <= 1
 R431: x4_0_ + x10_0_ <= 1
 R432: x4_1_ + x10_1_ <= 1
 R433: x4_2_ + x10_2_ <= 1
 R434: x4_3_ + x10_3_ <= 1
 R435: x4_4_ + x10_4_ <= 1
 R436: x4_5_ + x10_5_ <= 1
 R437: x4_6_ + x10_6_ <= 1
 R438: x4_7_ + x10_7_ <= 1
 R439: x4_8_ + x10_8_ <= 1
 R440: x4_9_ + x10_9_ <= 1
 R441: x7_0_ + x10_0_ <= 1
 R442: x7_1_ + x10_1_ <= 1
 R443: x7_2_ + x10_2_ <= 1
 R444: x7_3_ + x10_3_ <= 1
 R445: x7_4_ + x10_4_ <= 1
 R446: x7_5_ + x10_5_ <= 1
 R447: x7_6_ + x10_6_ <= 1
 R448: x7_7_ + x10_7_ <= 1
 R449: x7_8_ + x10_8_ <= 1
 R450: x7_9_ + x10_9_ <= 1
 R451: x9_0_ + x10_0_ <= 1
 R452: x9_1_ + x10_1_ <= 1
 R453: x9_2_ + x10_2_ <= 1
 R454: x9_3_ + x10_3_ <= 1
 R455: x9_4_ + x10_4_ <= 1
 R456: x9_5_ + x10_5_ <= 1
 R457: x9_6_ + x10_6_ <= 1
 R458: x9_7_ + x10_7_ <= 1
 R459: x9_8_ + x10_8_ <= 1
 R460: x9_9_ + x10_9_ <= 1
 R461: x0_6_ + x11_6_ <= 1
 R462: x0_7_ + x11_7_ <= 1
 R463: x0_8_ + x11_8_ <= 1
 R464: x0_9_ + x11_9_ <= 1
 R465: x5_6_ + x11_6_ <= 1
 R466: x5_7_ + x11_7_ <= 1
 R467: x5_8_ + x11_8_ <= 1
 R468: x5_9_ + x11_9_ <= 1
 R469: x8_6_ + x11_6_ <= 1
 R470: x8_7_ + x11_7_ <= 1
 R471: x8_8_ + x11_8_ <= 1
 R472: x8_9_ + x11_9_ <= 1
 R473: x11_6_ + x12_6_ <= 1
 R474: x11_7_ + x12_7_ <= 1
 R475: x11_8_ + x12_8_ <= 1
 R476: x11_9_ + x12_9_ <= 1
 R477: x11_6_ + x14_6_ <= 1
 R478: x11_7_ + x14_7_ <= 1
 R479: x11_8_ + x14_8_ <= 1
 R480: x11_9_ + x14_9_ <= 1
 R481: x11_6_ + x17_6_ <= 1
 R482: x11_7_ + x17_7_ <= 1
 R483: x11_8_ + x17_8_ <= 1
 R484: x11_9_ + x17_9_ <= 1
 R485: x5_0_ + x12_0_ <= 1
 R486: x5_1_ + x12_1_ <= 1
 R487: x5_2_ + x12_2_ <= 1
 R488: x5_3_ + x12_3_ <= 1
 R489: x5_4_ + x12_4_ <= 1
 R490: x5_5_ + x12_5_ <= 1
 R491: x5_6_ + x12_6_ <= 1
 R492: x5_7_ + x12_7_ <= 1
 R493: x5_8_ + x12_8_ <= 1
 R494: x5_9_ + x12_9_ <= 1
 R495: x8_0_ + x12_0_ <= 1
 R496: x8_1_ + x12_1_ <= 1
 R497: x8_2_ + x12_2_ <= 1
 R498: x8_3_ + x12_3_ <= 1
 R499: x8_4_ + x12_4_ <= 1
 R500: x8_5_ + x12_5_ <= 1
 R501: x8_6_ + x12_6_ <= 1
 R502: x8_7_ + x12_7_ <= 1
 R503: x8_8_ + x12_8_ <= 1
 R504: x8_9_ + x12_9_ <= 1
 R505: x12_0_ + x17_0_ <= 1
 R506: x12_1_ + x17_1_ <= 1
 R507: x12_2_ + x17_2_ <= 1
 R508: x12_3_ + x17_3_ <= 1
 R509: x12_4_ + x17_4_ <= 1
 R510: x12_5_ + x17_5_ <= 1
 R511: x12_6_ + x17_6_ <= 1
 R512: x12_7_ + x17_7_ <= 1
 R513: x12_8_ + x17_8_ <= 1
 R514: x12_9_ + x17_9_ <= 1
 R515: x3_6_ + x13_6_ <= 1
 R516: x3_7_ + x13_7_ <= 1
 R517: x3_8_ + x13_8_ <= 1
 R518: x3_9_ + x13_9_ <= 1
 R519: x4_6_ + x13_6_ <= 1
 R520: x4_7_ + x13_7_ <= 1
 R521: x4_8_ + x13_8_ <= 1
 R522: x4_9_ + x13_9_ <= 1
 R523: x6_6_ + x13_6_ <= 1
 R524: x6_7_ + x13_7_ <= 1
 R525: x6_8_ + x13_8_ <= 1
 R526: x6_9_ + x13_9_ <= 1
 R527: x7_6_ + x13_6_ <= 1
 R528: x7_7_ + x13_7_ <= 1
 R529: x7_8_ + x13_8_ <= 1
 R530: x7_9_ + x13_9_ <= 1
 R531: x9_6_ + x13_6_ <= 1
 R532: x9_7_ + x13_7_ <= 1
 R533: x9_8_ + x13_8_ <= 1
 R534: x9_9_ + x13_9_ <= 1
 R535: x10_6_ + x13_6_ <= 1
 R536: x10_7_ + x13_7_ <= 1
 R537: x10_8_ + x13_8_ <= 1
 R538: x10_9_ + x13_9_ <= 1
 R539: x13_6_ + x16_6_ <= 1
 R540: x13_7_ + x16_7_ <= 1
 R541: x13_8_ + x16_8_ <= 1
 R542: x13_9_ + x16_9_ <= 1
 R543: x13_6_ + x18_6_ <= 1
 R544: x13_7_ + x18_7_ <= 1
 R545: x13_8_ + x18_8_ <= 1
 R546: x13_9_ + x18_9_ <= 1
 R547: x0_0_ + x14_0_ <= 1
 R548: x0_1_ + x14_1_ <= 1
 R549: x0_2_ + x14_2_ <= 1
 R550: x0_3_ + x14_3_ <= 1
 R551: x0_4_ + x14_4_ <= 1
 R552: x0_5_ + x14_5_ <= 1
 R553: x0_6_ + x14_6_ <= 1
 R554: x0_7_ + x14_7_ <= 1
 R555: x0_8_ + x14_8_ <= 1
 R556: x0_9_ + x14_9_ <= 1
 R557: x5_0_ + x15_0_ <= 1
 R558: x5_1_ + x15_1_ <= 1
 R559: x5_2_ + x15_2_ <= 1
 R560: x5_3_ + x15_3_ <= 1
 R561: x5_4_ + x15_4_ <= 1
 R562: x5_5_ + x15_5_ <= 1
 R563: x5_6_ + x15_6_ <= 1
 R564: x5_7_ + x15_7_ <= 1
 R565: x5_8_ + x15_8_ <= 1
 R566: x5_9_ + x15_9_ <= 1
 R567: x8_0_ + x15_0_ <= 1
 R568: x8_1_ + x15_1_ <= 1
 R569: x8_2_ + x15_2_ <= 1
 R570: x8_3_ + x15_3_ <= 1
 R571: x8_4_ + x15_4_ <= 1
 R572: x8_5_ + x15_5_ <= 1
 R573: x8_6_ + x15_6_ <= 1
 R574: x8_7_ + x15_7_ <= 1
 R575: x8_8_ + x15_8_ <= 1
 R576: x8_9_ + x15_9_ <= 1
 R577: x3_0_ + x16_0_ <= 1
 R578: x3_1_ + x16_1_ <= 1
 R579: x3_2_ + x16_2_ <= 1
 R580: x3_3_ + x16_3_ <= 1
 R581: x3_4_ + x16_4_ <= 1
 R582: x3_5_ + x16_5_ <= 1
 R583: x3_6_ + x16_6_ <= 1
 R584: x3_7_ + x16_7_ <= 1
 R585: x3_8_ + x16_8_ <= 1
 R586: x3_9_ + x16_9_ <= 1
 R587: x6_0_ + x16_0_ <= 1
 R588: x6_1_ + x16_1_ <= 1
 R589: x6_2_ + x16_2_ <= 1
 R590: x6_3_ + x16_3_ <= 1
 R591: x6_4_ + x16_4_ <= 1
 R592: x6_5_ + x16_5_ <= 1
 R593: x6_6_ + x16_6_ <= 1
 R594: x6_7_ + x16_7_ <= 1
 R595: x6_8_ + x16_8_ <= 1
 R596: x6_9_ + x16_9_ <= 1
 R597: x9_0_ + x16_0_ <= 1
 R598: x9_1_ + x16_1_ <= 1
 R599: x9_2_ + x16_2_ <= 1
 R600: x9_3_ + x16_3_ <= 1
 R601: x9_4_ + x16_4_ <= 1
 R602: x9_5_ + x16_5_ <= 1
 R603: x9_6_ + x16_6_ <= 1
 R604: x9_7_ + x16_7_ <= 1
 R605: x9_8_ + x16_8_ <= 1
 R606: x9_9_ + x16_9_ <= 1
 R607: x16_0_ + x19_0_ <= 1
 R608: x16_1_ + x19_1_ <= 1
 R609: x16_2_ + x19_2_ <= 1
 R610: x16_3_ + x19_3_ <= 1
 R611: x16_4_ + x19_4_ <= 1
 R612: x16_5_ + x19_5_ <= 1
 R613: x16_6_ + x19_6_ <= 1
 R614: x16_7_ + x19_7_ <= 1
 R615: x16_8_ + x19_8_ <= 1
 R616: x16_9_ + x19_9_ <= 1
 R617: x5_0_ + x17_0_ <= 1
 R618: x5_1_ + x17_1_ <= 1
 R619: x5_2_ + x17_2_ <= 1
 R620: x5_3_ + x17_3_ <= 1
 R621: x5_4_ + x17_4_ <= 1
 R622: x5_5_ + x17_5_ <= 1
 R623: x5_6_ + x17_6_ <= 1
 R624: x5_7_ + x17_7_ <= 1
 R625: x5_8_ + x17_8_ <= 1
 R626: x5_9_ + x17_9_ <= 1
 R627: x8_0_ + x17_0_ <= 1
 R628: x8_1_ + x17_1_ <= 1
 R629: x8_2_ + x17_2_ <= 1
 R630: x8_3_ + x17_3_ <= 1
 R631: x8_4_ + x17_4_ <= 1
 R632: x8_5_ + x17_5_ <= 1
 R633: x8_6_ + x17_6_ <= 1
 R634: x8_7_ + x17_7_ <= 1
 R635: x8_8_ + x17_8_ <= 1
 R636: x8_9_ + x17_9_ <= 1
 R637: x12_0_ + x17_0_ <= 1
 R638: x12_1_ + x17_1_ <= 1
 R639: x12_2_ + x17_2_ <= 1
 R640: x12_3_ + x17_3_ <= 1
 R641: x12_4_ + x17_4_ <= 1
 R642: x12_5_ + x17_5_ <= 1
 R643: x12_6_ + x17_6_ <= 1
 R644: x12_7_ + x17_7_ <= 1
 R645: x12_8_ + x17_8_ <= 1
 R646: x12_9_ + x17_9_ <= 1
 R647: x1_6_ + x18_6_ <= 1
 R648: x1_7_ + x18_7_ <= 1
 R649: x1_8_ + x18_8_ <= 1
 R650: x1_9_ + x18_9_ <= 1
 R651: x3_6_ + x18_6_ <= 1
 R652: x3_7_ + x18_7_ <= 1
 R653: x3_8_ + x18_8_ <= 1
 R654: x3_9_ + x18_9_ <= 1
 R655: x4_6_ + x18_6_ <= 1
 R656: x4_7_ + x18_7_ <= 1
 R657: x4_8_ + x18_8_ <= 1
 R658: x4_9_ + x18_9_ <= 1
 R659: x6_6_ + x18_6_ <= 1
 R660: x6_7_ + x18_7_ <= 1
 R661: x6_8_ + x18_8_ <= 1
 R662: x6_9_ + x18_9_ <= 1
 R663: x7_6_ + x18_6_ <= 1
 R664: x7_7_ + x18_7_ <= 1
 R665: x7_8_ + x18_8_ <= 1
 R666: x7_9_ + x18_9_ <= 1
 R667: x9_6_ + x18_6_ <= 1
 R668: x9_7_ + x18_7_ <= 1
 R669: x9_8_ + x18_8_ <= 1
 R670: x9_9_ + x18_9_ <= 1
 R671: x10_6_ + x18_6_ <= 1
 R672: x10_7_ + x18_7_ <= 1
 R673: x10_8_ + x18_8_ <= 1
 R674: x10_9_ + x18_9_ <= 1
 R675: x13_6_ + x18_6_ <= 1
 R676: x13_7_ + x18_7_ <= 1
 R677: x13_8_ + x18_8_ <= 1
 R678: x13_9_ + x18_9_ <= 1
 R679: x16_6_ + x18_6_ <= 1
 R680: x16_7_ + x18_7_ <= 1
 R681: x16_8_ + x18_8_ <= 1
 R682: x16_9_ + x18_9_ <= 1
 R683: x3_0_ + x19_0_ <= 1
 R684: x3_1_ + x19_1_ <= 1
 R685: x3_2_ + x19_2_ <= 1
 R686: x3_3_ + x19_3_ <= 1
 R687: x3_4_ + x19_4_ <= 1
 R688: x3_5_ + x19_5_ <= 1
 R689: x3_6_ + x19_6_ <= 1
 R690: x3_7_ + x19_7_ <= 1
 R691: x3_8_ + x19_8_ <= 1
 R692: x3_9_ + x19_9_ <= 1
 R693: x6_0_ + x19_0_ <= 1
 R694: x6_1_ + x19_1_ <= 1
 R695: x6_2_ + x19_2_ <= 1
 R696: x6_3_ + x19_3_ <= 1
 R697: x6_4_ + x19_4_ <= 1
 R698: x6_5_ + x19_5_ <= 1
 R699: x6_6_ + x19_6_ <= 1
 R700: x6_7_ + x19_7_ <= 1
 R701: x6_8_ + x19_8_ <= 1
 R702: x6_9_ + x19_9_ <= 1
 R703: x9_0_ + x19_0_ <= 1
 R704: x9_1_ + x19_1_ <= 1
 R705: x9_2_ + x19_2_ <= 1
 R706: x9_3_ + x19_3_ <= 1
 R707: x9_4_ + x19_4_ <= 1
 R708: x9_5_ + x19_5_ <= 1
 R709: x9_6_ + x19_6_ <= 1
 R710: x9_7_ + x19_7_ <= 1
 R711: x9_8_ + x19_8_ <= 1
 R712: x9_9_ + x19_9_ <= 1
 R713: x16_0_ + x19_0_ <= 1
 R714: x16_1_ + x19_1_ <= 1
 R715: x16_2_ + x19_2_ <= 1
 R716: x16_3_ + x19_3_ <= 1
 R717: x16_4_ + x19_4_ <= 1
 R718: x16_5_ + x19_5_ <= 1
 R719: x16_6_ + x19_6_ <= 1
 R720: x16_7_ + x19_7_ <= 1
 R721: x16_8_ + x19_8_ <= 1
 R722: x16_9_ + x19_9_ <= 1
 R723: <= 1
 R724: 9 x0_0_ + 9 x0_1_ + 9 x0_2_ + 9 x0_3_ + 9 x0_4_ + 9 x0_5_ + 7 x0_6_
   + 2 x0_7_ + 2 x0_8_ + 2 x0_9_ + 216 x1_7_ + 216 x1_8_ + 216 x1_9_
   + 51 x2_7_ + 51 x2_8_ + 51 x2_9_ + 45 x3_0_ + 45 x3_1_ + 45 x3_2_
   + 45 x3_3_ + 45 x3_4_ + 45 x3_5_ + 35 x3_6_ + 10 x3_7_ + 10 x3_8_
   + 10 x3_9_ + 27 x4_0_ + 27 x4_1_ + 27 x4_2_ + 27 x4_3_ + 27 x4_4_
   + 27 x4_5_ + 21 x4_6_ + 6 x4_7_ + 6 x4_8_ + 6 x4_9_ + 45 x5_0_
   + 45 x5_1_ + 45 x5_2_ + 45 x5_3_ + 45 x5_4_ + 45 x5_5_ + 35 x5_6_
   + 10 x5_7_ + 10 x5_8_ + 10 x5_9_ + 27 x6_0_ + 27 x6_1_ + 27 x6_2_
   + 27 x6_3_ + 27 x6_4_ + 27 x6_5_ + 21 x6_6_ + 6 x6_7_ + 6 x6_8_
   + 6 x6_9_ + 9 x7_0_ + 9 x7_1_ + 9 x7_2_ + 9 x7_3_ + 9 x7_4_ + 9 x7_5_
   + 7 x7_6_ + 2 x7_7_ + 2 x7_8_ + 2 x7_9_ + 36 x8_0_ + 36 x8_1_ + 36 x8_2_
   + 36 x8_3_ + 36 x8_4_ + 36 x8_5_ + 28 x8_6_ + 8 x8_7_ + 8 x8_8_
   + 8 x8_9_ + 45 x9_0_ + 45 x9_1_ + 45 x9_2_ + 45 x9_3_ + 45 x9_4_
   + 45 x9_5_ + 35 x9_6_ + 10 x9_7_ + 10 x9_8_ + 10 x9_9_ + 18 x10_0_
   + 18 x10_1_ + 18 x10_2_ + 18 x10_3_ + 18 x10_4_ + 18 x10_5_ + 14 x10_6_
   + 4 x10_7_ + 4 x10_8_ + 4 x10_9_ + 288 x11_7_ + 288 x11_8_ + 288 x11_9_
   + 18 x12_0_ + 18 x12_1_ + 18 x12_2_ + 18 x12_3_ + 18 x12_4_ + 18 x12_5_
   + 14 x12_6_ + 4 x12_7_ + 4 x12_8_ + 4 x12_9_ + 144 x13_7_ + 144 x13_8_
   + 144 x13_9_ + 9 x14_0_ + 9 x14_1_ + 9 x14_2_ + 9 x14_3_ + 9 x14_4_
   + 9 x14_5_ + 7 x14_6_ + 2 x14_7_ + 2 x14_8_ + 2 x14_9_ + 9 x15_0_
   + 9 x15_1_ + 9 x15_2_ + 9 x15_3_ + 9 x15_4_ + 9 x15_5_ + 7 x15_6_
   + 2 x15_7_ + 2 x15_8_ + 2 x15_9_ + 27 x16_0_ + 27 x16_1_ + 27 x16_2_
   + 27 x16_3_ + 27 x16_4_ + 27 x16_5_ + 21 x16_6_ + 6 x16_7_ + 6 x16_8_
   + 6 x16_9_ + 27 x17_0_ + 27 x17_1_ + 27 x17_2_ + 27 x17_3_ + 27 x17_4_
   + 27 x17_5_ + 21 x17_6_ + 6 x17_7_ + 6 x17_8_ + 6 x17_9_ + 288 x18_7_
   + 288 x18_8_ + 288 x18_9_ + 18 x19_0_ + 18 x19_1_ + 18 x19_2_
   + 18 x19_3_ + 18 x19_4_ + 18 x19_5_ + 14 x19_6_ + 4 x19_7_ + 4 x19_8_
   + 4 x19_9_ >= 1356
 R725: x0_4_ + x1_7_ + x2_7_ + x3_0_ + x4_1_ + x5_0_ + x6_1_ + x7_2_
   + x8_2_ + x9_3_ + x10_4_ + x11_7_ + x12_1_ + x13_8_ + x14_3_ + x15_1_
   + x16_2_ + x17_5_ + x18_9_ + x19_4_ <= 19
 R726: x0_0_ + x1_9_ + x2_8_ + x3_0_ + x4_1_ + x5_0_ + x6_3_ + x7_3_
   + x8_2_ + x9_2_ + x10_5_ + x11_9_ + x12_1_ + x13_9_ + x14_2_ + x15_5_
   + x16_5_ + x17_5_ + x18_7_ + x19_1_ <= 19
 R727: x0_0_ + x1_9_ + x2_8_ + x3_0_ + x4_1_ + x5_0_ + x6_3_ + x7_3_
   + x8_2_ + x9_2_ + x10_5_ + x11_8_ + x12_1_ + x13_9_ + x14_2_ + x15_5_
   + x16_5_ + x17_5_ + x18_7_ + x19_1_ <= 19
 R728: x0_0_ + x1_9_ + x2_7_ + x3_0_ + x4_5_ + x5_0_ + x6_4_ + x7_4_
   + x8_2_ + x9_2_ + x10_1_ + x11_7_ + x12_5_ + x13_9_ + x14_2_ + x15_4_
   + x16_1_ + x17_1_ + x18_8_ + x19_5_ <= 19
Bounds
Binaries
 x0_0_ x0_1_ x0_2_ x0_3_ x0_4_ x0_5_ x0_6_ x0_7_ x0_8_ x0_9_ x0_n_ x1_6_
 x1_7_ x1_8_ x1_9_ x1_n_ x2_7_ x2_8_ x2_9_ x2_n_ x3_0_ x3_1_ x3_2_ x3_3_
 x3_4_ x3_5_ x3_6_ x3_7_ x3_8_ x3_9_ x3_n_ x4_0_ x4_1_ x4_2_ x4_3_ x4_4_
 x4_5_ x4_6_ x4_7_ x4_8_ x4_9_ x4_n_ x5_0_ x5_1_ x5_2_ x5_3_ x5_4_ x5_5_
 x5_6_ x5_7_ x5_8_ x5_9_ x5_n_ x6_0_ x6_1_ x6_2_ x6_3_ x6_4_ x6_5_ x6_6_
 x6_7_ x6_8_ x6_9_ x6_n_ x7_0_ x7_1_ x7_2_ x7_3_ x7_4_ x7_5_ x7_6_ x7_7_
 x7_8_ x7_9_ x7_n_ x8_0_ x8_1_ x8_2_ x8_3_ x8_4_ x8_5_ x8_6_ x8_7_ x8_8_
 x8_9_ x8_n_ x9_0_ x9_1_ x9_2_ x9_3_ x9_4_ x9_5_ x9_6_ x9_7_ x9_8_ x9_9_
 x9_n_ x10_0_ x10_1_ x10_2_ x10_3_ x10_4_ x10_5_ x10_6_ x10_7_ x10_8_
 x10_9_ x10_n_ x11_6_ x11_7_ x11_8_ x11_9_ x11_n_ x12_0_ x12_1_ x12_2_
 x12_3_ x12_4_ x12_5_ x12_6_ x12_7_ x12_8_ x12_9_ x12_n_ x13_6_ x13_7_
 x13_8_ x13_9_ x13_n_ x14_0_ x14_1_ x14_2_ x14_3_ x14_4_ x14_5_ x14_6_
 x14_7_ x14_8_ x14_9_ x14_n_ x15_0_ x15_1_ x15_2_ x15_3_ x15_4_ x15_5_
 x15_6_ x15_7_ x15_8_ x15_9_ x15_n_ x16_0_ x16_1_ x16_2_ x16_3_ x16_4_
 x16_5_ x16_6_ x16_7_ x16_8_ x16_9_ x16_n_ x17_0_ x17_1_ x17_2_ x17_3_
 x17_4_ x17_5_ x17_6_ x17_7_ x17_8_ x17_9_ x17_n_ x18_6_ x18_7_ x18_8_
 x18_9_ x18_n_ x19_0_ x19_1_ x19_2_ x19_3_ x19_4_ x19_5_ x19_6_ x19_7_
 x19_8_ x19_9_ x19_n_
End
